60
1 0 5
2 0 3
2 1 1
3 0 5
3 1 5
3 2 3
4 0 2
4 1 1
4 2 4
4 3 4
5 0 3
5 1 4
5 2 4
5 3 1
5 4 2
6 0 4
6 1 2
6 2 1
6 3 3
6 4 3
6 5 4
7 0 1
7 1 1
7 2 4
7 3 5
7 4 4
7 5 5
7 6 1
8 0 4
8 1 3
8 2 4
8 3 1
8 4 2
8 5 4
8 6 3
8 7 1
9 0 3
9 1 2
9 2 1
9 3 5
9 4 1
9 5 3
9 6 1
9 7 3
9 8 5
10 0 2
10 1 4
10 2 2
10 3 2
10 4 5
10 5 5
10 6 3
10 7 1
10 8 5
10 9 1
11 0 5
11 1 4
11 2 4
11 3 4
11 4 4
11 5 5
11 6 5
11 7 2
11 8 4
11 9 5
11 10 1
12 0 5
12 1 3
12 2 1
12 3 4
12 4 4
12 5 1
12 6 2
12 7 4
12 8 4
12 9 4
12 10 1
12 11 4
13 0 2
13 1 2
13 2 1
13 3 3
13 4 2
13 5 5
13 6 3
13 7 3
13 8 3
13 9 3
13 10 1
13 11 5
13 12 1
14 0 1
14 1 2
14 2 5
14 3 4
14 4 1
14 5 1
14 6 4
14 7 4
14 8 2
14 9 1
14 10 2
14 11 4
14 12 3
14 13 3
15 0 4
15 1 5
15 2 3
15 3 5
15 4 3
15 5 2
15 6 5
15 7 3
15 8 3
15 9 4
15 10 3
15 11 5
15 12 3
15 13 1
15 14 5
16 0 5
16 1 4
16 2 5
16 3 1
16 4 3
16 5 5
16 6 5
16 7 4
16 8 3
16 9 5
16 10 1
16 11 4
16 12 2
16 13 5
16 14 4
16 15 3
17 0 2
17 1 1
17 2 4
17 3 4
17 4 3
17 5 3
17 6 2
17 7 1
17 8 4
17 9 3
17 10 4
17 11 1
17 12 5
17 13 2
17 14 3
17 15 5
17 16 3
18 0 2
18 1 1
18 2 2
18 3 4
18 4 2
18 5 2
18 6 2
18 7 4
18 8 1
18 9 2
18 10 5
18 11 5
18 12 4
18 13 1
18 14 3
18 15 3
18 16 5
18 17 4
19 0 2
19 1 4
19 2 4
19 3 1
19 4 3
19 5 2
19 6 5
19 7 3
19 8 1
19 9 1
19 10 5
19 11 3
19 12 1
19 13 2
19 14 5
19 15 2
19 16 4
19 17 3
19 18 2
20 0 1
20 1 4
20 2 3
20 3 1
20 4 5
20 5 4
20 6 3
20 7 2
20 8 3
20 9 1
20 10 2
20 11 3
20 12 3
20 13 1
20 14 3
20 15 2
20 16 3
20 17 5
20 18 3
20 19 1
21 0 2
21 1 3
21 2 4
21 3 1
21 4 4
21 5 5
21 6 4
21 7 5
21 8 3
21 9 2
21 10 5
21 11 2
21 12 5
21 13 3
21 14 4
21 15 1
21 16 1
21 17 5
21 18 1
21 19 3
21 20 4
22 0 5
22 1 3
22 2 3
22 3 5
22 4 5
22 5 4
22 6 3
22 7 4
22 8 5
22 9 4
22 10 1
22 11 3
22 12 4
22 13 1
22 14 3
22 15 4
22 16 4
22 17 2
22 18 2
22 19 4
22 20 4
22 21 2
23 0 2
23 1 3
23 2 4
23 3 1
23 4 2
23 5 5
23 6 4
23 7 1
23 8 4
23 9 3
23 10 2
23 11 5
23 12 5
23 13 3
23 14 3
23 15 5
23 16 2
23 17 1
23 18 1
23 19 5
23 20 2
23 21 3
23 22 1
24 0 3
24 1 3
24 2 2
24 3 5
24 4 4
24 5 1
24 6 3
24 7 2
24 8 3
24 9 3
24 10 4
24 11 2
24 12 5
24 13 3
24 14 5
24 15 1
24 16 5
24 17 2
24 18 1
24 19 5
24 20 4
24 21 1
24 22 4
24 23 4
25 0 2
25 1 2
25 2 2
25 3 5
25 4 3
25 5 1
25 6 1
25 7 5
25 8 4
25 9 3
25 10 1
25 11 5
25 12 1
25 13 2
25 14 4
25 15 5
25 16 5
25 17 1
25 18 4
25 19 2
25 20 3
25 21 4
25 22 2
25 23 3
25 24 3
26 0 3
26 1 5
26 2 2
26 3 5
26 4 2
26 5 5
26 6 4
26 7 5
26 8 4
26 9 5
26 10 1
26 11 2
26 12 4
26 13 5
26 14 3
26 15 2
26 16 4
26 17 4
26 18 3
26 19 3
26 20 2
26 21 2
26 22 5
26 23 1
26 24 2
26 25 4
27 0 1
27 1 3
27 2 5
27 3 1
27 4 2
27 5 4
27 6 2
27 7 1
27 8 4
27 9 2
27 10 5
27 11 5
27 12 3
27 13 3
27 14 3
27 15 4
27 16 1
27 17 2
27 18 1
27 19 1
27 20 4
27 21 1
27 22 1
27 23 1
27 24 5
27 25 4
27 26 5
28 0 4
28 1 1
28 2 1
28 3 4
28 4 2
28 5 2
28 6 3
28 7 3
28 8 2
28 9 5
28 10 2
28 11 1
28 12 2
28 13 4
28 14 5
28 15 4
28 16 2
28 17 1
28 18 4
28 19 2
28 20 5
28 21 5
28 22 2
28 23 2
28 24 3
28 25 3
28 26 3
28 27 5
29 0 4
29 1 1
29 2 4
29 3 5
29 4 5
29 5 1
29 6 3
29 7 3
29 8 5
29 9 3
29 10 5
29 11 1
29 12 3
29 13 1
29 14 4
29 15 5
29 16 3
29 17 4
29 18 4
29 19 1
29 20 5
29 21 2
29 22 3
29 23 1
29 24 2
29 25 5
29 26 3
29 27 5
29 28 1
30 0 4
30 1 3
30 2 5
30 3 1
30 4 5
30 5 5
30 6 5
30 7 2
30 8 2
30 9 1
30 10 2
30 11 3
30 12 4
30 13 4
30 14 4
30 15 2
30 16 5
30 17 1
30 18 4
30 19 2
30 20 1
30 21 1
30 22 4
30 23 5
30 24 4
30 25 5
30 26 2
30 27 3
30 28 4
30 29 3
31 0 2
31 1 3
31 2 5
31 3 1
31 4 4
31 5 2
31 6 3
31 7 3
31 8 3
31 9 2
31 10 1
31 11 5
31 12 5
31 13 4
31 14 4
31 15 3
31 16 5
31 17 4
31 18 2
31 19 4
31 20 4
31 21 5
31 22 5
31 23 3
31 24 5
31 25 2
31 26 4
31 27 2
31 28 2
31 29 1
31 30 3
32 0 3
32 1 4
32 2 4
32 3 2
32 4 2
32 5 5
32 6 3
32 7 4
32 8 3
32 9 4
32 10 1
32 11 3
32 12 4
32 13 4
32 14 2
32 15 3
32 16 5
32 17 3
32 18 2
32 19 1
32 20 2
32 21 3
32 22 2
32 23 4
32 24 2
32 25 5
32 26 4
32 27 5
32 28 2
32 29 1
32 30 1
32 31 5
33 0 3
33 1 1
33 2 5
33 3 2
33 4 1
33 5 1
33 6 1
33 7 4
33 8 5
33 9 5
33 10 4
33 11 2
33 12 3
33 13 3
33 14 5
33 15 5
33 16 1
33 17 4
33 18 1
33 19 3
33 20 2
33 21 1
33 22 5
33 23 2
33 24 2
33 25 5
33 26 1
33 27 3
33 28 3
33 29 4
33 30 2
33 31 2
33 32 4
34 0 3
34 1 4
34 2 4
34 3 1
34 4 1
34 5 5
34 6 4
34 7 1
34 8 5
34 9 3
34 10 5
34 11 2
34 12 2
34 13 1
34 14 4
34 15 2
34 16 3
34 17 3
34 18 4
34 19 2
34 20 3
34 21 3
34 22 3
34 23 3
34 24 1
34 25 1
34 26 3
34 27 4
34 28 3
34 29 3
34 30 3
34 31 5
34 32 1
34 33 3
35 0 4
35 1 2
35 2 2
35 3 5
35 4 3
35 5 2
35 6 1
35 7 5
35 8 4
35 9 3
35 10 1
35 11 2
35 12 2
35 13 1
35 14 3
35 15 2
35 16 4
35 17 1
35 18 5
35 19 1
35 20 4
35 21 2
35 22 3
35 23 4
35 24 5
35 25 1
35 26 2
35 27 1
35 28 4
35 29 1
35 30 1
35 31 5
35 32 2
35 33 1
35 34 2
36 0 3
36 1 5
36 2 5
36 3 3
36 4 4
36 5 5
36 6 3
36 7 1
36 8 5
36 9 3
36 10 5
36 11 1
36 12 1
36 13 5
36 14 3
36 15 3
36 16 3
36 17 2
36 18 1
36 19 2
36 20 5
36 21 2
36 22 3
36 23 4
36 24 3
36 25 4
36 26 3
36 27 4
36 28 5
36 29 2
36 30 1
36 31 4
36 32 4
36 33 1
36 34 2
36 35 5
37 0 5
37 1 1
37 2 5
37 3 1
37 4 1
37 5 1
37 6 5
37 7 2
37 8 4
37 9 3
37 10 1
37 11 3
37 12 4
37 13 5
37 14 5
37 15 4
37 16 3
37 17 2
37 18 3
37 19 2
37 20 2
37 21 1
37 22 4
37 23 4
37 24 4
37 25 4
37 26 3
37 27 1
37 28 5
37 29 5
37 30 5
37 31 2
37 32 4
37 33 4
37 34 2
37 35 4
37 36 3
38 0 2
38 1 4
38 2 3
38 3 4
38 4 2
38 5 2
38 6 4
38 7 1
38 8 2
38 9 2
38 10 1
38 11 4
38 12 1
38 13 2
38 14 2
38 15 2
38 16 1
38 17 5
38 18 2
38 19 2
38 20 1
38 21 1
38 22 3
38 23 2
38 24 5
38 25 2
38 26 4
38 27 1
38 28 1
38 29 3
38 30 3
38 31 3
38 32 1
38 33 5
38 34 5
38 35 2
38 36 1
38 37 2
39 0 5
39 1 2
39 2 3
39 3 3
39 4 3
39 5 1
39 6 1
39 7 3
39 8 1
39 9 3
39 10 3
39 11 5
39 12 3
39 13 2
39 14 2
39 15 2
39 16 5
39 17 2
39 18 1
39 19 5
39 20 2
39 21 4
39 22 5
39 23 3
39 24 3
39 25 2
39 26 2
39 27 2
39 28 3
39 29 4
39 30 5
39 31 3
39 32 2
39 33 4
39 34 4
39 35 5
39 36 2
39 37 4
39 38 4
40 0 4
40 1 4
40 2 1
40 3 3
40 4 5
40 5 2
40 6 2
40 7 5
40 8 3
40 9 4
40 10 3
40 11 2
40 12 2
40 13 2
40 14 1
40 15 4
40 16 4
40 17 4
40 18 4
40 19 4
40 20 4
40 21 3
40 22 1
40 23 3
40 24 4
40 25 4
40 26 2
40 27 1
40 28 5
40 29 2
40 30 4
40 31 5
40 32 2
40 33 2
40 34 5
40 35 5
40 36 3
40 37 1
40 38 3
40 39 3
41 0 3
41 1 4
41 2 4
41 3 2
41 4 5
41 5 5
41 6 1
41 7 1
41 8 3
41 9 1
41 10 2
41 11 1
41 12 1
41 13 5
41 14 5
41 15 2
41 16 4
41 17 2
41 18 1
41 19 1
41 20 1
41 21 1
41 22 3
41 23 5
41 24 3
41 25 5
41 26 1
41 27 3
41 28 3
41 29 5
41 30 3
41 31 5
41 32 4
41 33 5
41 34 1
41 35 2
41 36 1
41 37 2
41 38 1
41 39 4
41 40 2
42 0 1
42 1 2
42 2 2
42 3 3
42 4 3
42 5 3
42 6 5
42 7 3
42 8 5
42 9 3
42 10 5
42 11 3
42 12 1
42 13 1
42 14 5
42 15 4
42 16 5
42 17 3
42 18 1
42 19 4
42 20 5
42 21 4
42 22 5
42 23 3
42 24 5
42 25 1
42 26 2
42 27 5
42 28 1
42 29 3
42 30 5
42 31 3
42 32 1
42 33 2
42 34 1
42 35 3
42 36 1
42 37 1
42 38 1
42 39 1
42 40 2
42 41 4
43 0 3
43 1 5
43 2 1
43 3 3
43 4 4
43 5 5
43 6 5
43 7 2
43 8 3
43 9 3
43 10 5
43 11 2
43 12 2
43 13 4
43 14 4
43 15 5
43 16 2
43 17 2
43 18 2
43 19 1
43 20 2
43 21 2
43 22 2
43 23 1
43 24 5
43 25 1
43 26 3
43 27 4
43 28 5
43 29 1
43 30 2
43 31 2
43 32 1
43 33 1
43 34 3
43 35 1
43 36 5
43 37 1
43 38 3
43 39 1
43 40 5
43 41 2
43 42 3
44 0 3
44 1 5
44 2 3
44 3 1
44 4 3
44 5 5
44 6 5
44 7 3
44 8 2
44 9 3
44 10 5
44 11 2
44 12 3
44 13 1
44 14 4
44 15 2
44 16 5
44 17 5
44 18 2
44 19 1
44 20 5
44 21 4
44 22 5
44 23 2
44 24 3
44 25 4
44 26 2
44 27 3
44 28 2
44 29 2
44 30 4
44 31 1
44 32 4
44 33 3
44 34 2
44 35 2
44 36 1
44 37 4
44 38 5
44 39 4
44 40 1
44 41 5
44 42 1
44 43 3
45 0 2
45 1 2
45 2 4
45 3 3
45 4 1
45 5 3
45 6 4
45 7 4
45 8 1
45 9 2
45 10 5
45 11 1
45 12 2
45 13 2
45 14 3
45 15 2
45 16 2
45 17 3
45 18 1
45 19 2
45 20 3
45 21 4
45 22 2
45 23 5
45 24 5
45 25 1
45 26 4
45 27 3
45 28 5
45 29 3
45 30 3
45 31 4
45 32 5
45 33 4
45 34 2
45 35 2
45 36 3
45 37 5
45 38 4
45 39 3
45 40 1
45 41 5
45 42 5
45 43 1
45 44 5
46 0 2
46 1 3
46 2 4
46 3 1
46 4 2
46 5 2
46 6 3
46 7 1
46 8 4
46 9 2
46 10 5
46 11 2
46 12 3
46 13 3
46 14 2
46 15 4
46 16 2
46 17 5
46 18 2
46 19 1
46 20 1
46 21 4
46 22 4
46 23 2
46 24 4
46 25 4
46 26 3
46 27 3
46 28 1
46 29 2
46 30 1
46 31 3
46 32 4
46 33 2
46 34 4
46 35 3
46 36 3
46 37 4
46 38 5
46 39 3
46 40 5
46 41 4
46 42 4
46 43 1
46 44 3
46 45 3
47 0 5
47 1 4
47 2 1
47 3 4
47 4 1
47 5 4
47 6 4
47 7 5
47 8 4
47 9 2
47 10 3
47 11 5
47 12 3
47 13 3
47 14 4
47 15 3
47 16 1
47 17 3
47 18 5
47 19 1
47 20 2
47 21 1
47 22 2
47 23 5
47 24 5
47 25 1
47 26 1
47 27 2
47 28 4
47 29 4
47 30 4
47 31 4
47 32 5
47 33 3
47 34 1
47 35 2
47 36 4
47 37 4
47 38 4
47 39 3
47 40 3
47 41 5
47 42 4
47 43 1
47 44 3
47 45 3
47 46 2
48 0 2
48 1 1
48 2 5
48 3 4
48 4 5
48 5 2
48 6 3
48 7 5
48 8 3
48 9 4
48 10 4
48 11 1
48 12 4
48 13 5
48 14 4
48 15 1
48 16 1
48 17 3
48 18 2
48 19 2
48 20 5
48 21 4
48 22 4
48 23 2
48 24 2
48 25 5
48 26 2
48 27 5
48 28 5
48 29 1
48 30 2
48 31 3
48 32 3
48 33 3
48 34 2
48 35 5
48 36 3
48 37 4
48 38 2
48 39 5
48 40 5
48 41 2
48 42 4
48 43 2
48 44 4
48 45 3
48 46 5
48 47 4
49 0 2
49 1 3
49 2 1
49 3 1
49 4 5
49 5 5
49 6 5
49 7 5
49 8 4
49 9 2
49 10 3
49 11 1
49 12 3
49 13 1
49 14 2
49 15 2
49 16 3
49 17 5
49 18 1
49 19 5
49 20 4
49 21 4
49 22 3
49 23 5
49 24 4
49 25 2
49 26 2
49 27 1
49 28 2
49 29 4
49 30 1
49 31 2
49 32 2
49 33 1
49 34 4
49 35 5
49 36 2
49 37 4
49 38 2
49 39 1
49 40 3
49 41 2
49 42 4
49 43 3
49 44 4
49 45 3
49 46 5
49 47 3
49 48 2
50 0 4
50 1 2
50 2 2
50 3 4
50 4 1
50 5 3
50 6 4
50 7 2
50 8 2
50 9 4
50 10 2
50 11 5
50 12 3
50 13 1
50 14 2
50 15 3
50 16 2
50 17 2
50 18 3
50 19 5
50 20 5
50 21 1
50 22 5
50 23 4
50 24 2
50 25 2
50 26 4
50 27 3
50 28 1
50 29 2
50 30 3
50 31 4
50 32 1
50 33 3
50 34 5
50 35 1
50 36 4
50 37 3
50 38 1
50 39 1
50 40 1
50 41 5
50 42 4
50 43 1
50 44 3
50 45 5
50 46 1
50 47 4
50 48 5
50 49 5
51 0 4
51 1 2
51 2 2
51 3 2
51 4 3
51 5 3
51 6 4
51 7 3
51 8 4
51 9 5
51 10 3
51 11 5
51 12 2
51 13 2
51 14 4
51 15 1
51 16 5
51 17 3
51 18 2
51 19 3
51 20 2
51 21 2
51 22 5
51 23 3
51 24 1
51 25 2
51 26 3
51 27 2
51 28 4
51 29 3
51 30 2
51 31 3
51 32 3
51 33 4
51 34 1
51 35 1
51 36 1
51 37 5
51 38 3
51 39 1
51 40 3
51 41 1
51 42 1
51 43 2
51 44 1
51 45 5
51 46 5
51 47 5
51 48 3
51 49 5
51 50 3
52 0 1
52 1 3
52 2 1
52 3 4
52 4 1
52 5 2
52 6 3
52 7 3
52 8 5
52 9 5
52 10 3
52 11 4
52 12 5
52 13 3
52 14 1
52 15 5
52 16 3
52 17 2
52 18 1
52 19 3
52 20 4
52 21 5
52 22 5
52 23 3
52 24 4
52 25 4
52 26 5
52 27 3
52 28 5
52 29 5
52 30 3
52 31 1
52 32 1
52 33 3
52 34 5
52 35 5
52 36 2
52 37 2
52 38 3
52 39 2
52 40 1
52 41 1
52 42 3
52 43 1
52 44 2
52 45 4
52 46 4
52 47 1
52 48 4
52 49 4
52 50 3
52 51 2
53 0 1
53 1 4
53 2 3
53 3 1
53 4 3
53 5 5
53 6 1
53 7 3
53 8 5
53 9 2
53 10 5
53 11 1
53 12 5
53 13 2
53 14 3
53 15 2
53 16 5
53 17 4
53 18 2
53 19 5
53 20 3
53 21 3
53 22 2
53 23 1
53 24 1
53 25 5
53 26 4
53 27 1
53 28 5
53 29 2
53 30 2
53 31 2
53 32 2
53 33 4
53 34 5
53 35 3
53 36 1
53 37 5
53 38 1
53 39 5
53 40 5
53 41 2
53 42 4
53 43 2
53 44 4
53 45 5
53 46 4
53 47 2
53 48 5
53 49 5
53 50 4
53 51 3
53 52 5
54 0 5
54 1 1
54 2 5
54 3 3
54 4 1
54 5 2
54 6 5
54 7 3
54 8 1
54 9 5
54 10 2
54 11 3
54 12 4
54 13 4
54 14 1
54 15 4
54 16 2
54 17 2
54 18 2
54 19 2
54 20 2
54 21 5
54 22 2
54 23 5
54 24 5
54 25 3
54 26 5
54 27 1
54 28 5
54 29 4
54 30 1
54 31 2
54 32 2
54 33 4
54 34 3
54 35 5
54 36 3
54 37 5
54 38 2
54 39 5
54 40 2
54 41 5
54 42 1
54 43 2
54 44 1
54 45 1
54 46 1
54 47 5
54 48 5
54 49 3
54 50 4
54 51 2
54 52 3
54 53 4
55 0 1
55 1 1
55 2 5
55 3 2
55 4 5
55 5 5
55 6 1
55 7 4
55 8 2
55 9 2
55 10 4
55 11 5
55 12 3
55 13 2
55 14 3
55 15 4
55 16 4
55 17 3
55 18 2
55 19 3
55 20 3
55 21 4
55 22 2
55 23 1
55 24 4
55 25 5
55 26 2
55 27 5
55 28 2
55 29 1
55 30 4
55 31 5
55 32 2
55 33 1
55 34 4
55 35 1
55 36 2
55 37 2
55 38 5
55 39 3
55 40 1
55 41 5
55 42 1
55 43 4
55 44 1
55 45 5
55 46 2
55 47 1
55 48 1
55 49 3
55 50 2
55 51 4
55 52 5
55 53 3
55 54 2
56 0 5
56 1 2
56 2 4
56 3 2
56 4 5
56 5 1
56 6 2
56 7 2
56 8 3
56 9 5
56 10 2
56 11 4
56 12 5
56 13 3
56 14 3
56 15 1
56 16 5
56 17 5
56 18 4
56 19 5
56 20 4
56 21 3
56 22 3
56 23 5
56 24 3
56 25 4
56 26 3
56 27 2
56 28 2
56 29 5
56 30 5
56 31 4
56 32 4
56 33 1
56 34 3
56 35 1
56 36 1
56 37 2
56 38 2
56 39 5
56 40 5
56 41 2
56 42 5
56 43 4
56 44 4
56 45 4
56 46 5
56 47 4
56 48 1
56 49 5
56 50 1
56 51 5
56 52 3
56 53 5
56 54 1
56 55 2
57 0 2
57 1 5
57 2 1
57 3 3
57 4 1
57 5 3
57 6 4
57 7 1
57 8 1
57 9 5
57 10 4
57 11 3
57 12 2
57 13 1
57 14 2
57 15 1
57 16 1
57 17 1
57 18 5
57 19 4
57 20 5
57 21 5
57 22 5
57 23 2
57 24 4
57 25 3
57 26 5
57 27 4
57 28 5
57 29 4
57 30 1
57 31 3
57 32 4
57 33 1
57 34 5
57 35 1
57 36 5
57 37 5
57 38 2
57 39 4
57 40 2
57 41 3
57 42 5
57 43 4
57 44 5
57 45 5
57 46 3
57 47 2
57 48 4
57 49 5
57 50 1
57 51 5
57 52 3
57 53 5
57 54 3
57 55 1
57 56 2
58 0 2
58 1 2
58 2 5
58 3 1
58 4 2
58 5 2
58 6 2
58 7 1
58 8 5
58 9 4
58 10 4
58 11 4
58 12 5
58 13 4
58 14 5
58 15 1
58 16 5
58 17 1
58 18 4
58 19 5
58 20 4
58 21 5
58 22 1
58 23 2
58 24 2
58 25 3
58 26 2
58 27 3
58 28 1
58 29 3
58 30 2
58 31 4
58 32 2
58 33 5
58 34 4
58 35 2
58 36 5
58 37 5
58 38 4
58 39 4
58 40 2
58 41 2
58 42 3
58 43 5
58 44 1
58 45 5
58 46 5
58 47 3
58 48 4
58 49 1
58 50 4
58 51 2
58 52 1
58 53 1
58 54 1
58 55 4
58 56 3
58 57 5
59 0 5
59 1 5
59 2 5
59 3 1
59 4 1
59 5 2
59 6 4
59 7 3
59 8 5
59 9 1
59 10 4
59 11 3
59 12 5
59 13 5
59 14 2
59 15 3
59 16 2
59 17 2
59 18 3
59 19 1
59 20 1
59 21 4
59 22 2
59 23 3
59 24 4
59 25 2
59 26 1
59 27 1
59 28 3
59 29 2
59 30 5
59 31 4
59 32 5
59 33 4
59 34 5
59 35 4
59 36 4
59 37 5
59 38 2
59 39 4
59 40 4
59 41 3
59 42 3
59 43 5
59 44 3
59 45 4
59 46 5
59 47 1
59 48 3
59 49 4
59 50 4
59 51 5
59 52 5
59 53 4
59 54 2
59 55 5
59 56 2
59 57 2
59 58 1
